NAME : mEgtspf.pid10473.gtsp.241592115.tour
COMMENT : Length = 241592115
COMMENT : Found by LKH [Keld Helsgaun] Wed Mar 19 20:58:23 2025
TYPE : TOUR
DIMENSION : 135
TOUR_SECTION
1
11
85
86
87
84
113
114
115
112
77
78
79
76
46
47
44
45
12
49
50
51
48
74
75
72
73
41
42
43
40
68
69
70
71
3
32
33
34
35
64
65
66
67
13
38
39
36
37
4
21
22
23
20
116
117
118
119
14
121
122
123
120
131
128
129
130
132
133
134
135
24
25
26
27
55
52
53
54
91
88
89
90
56
57
58
59
83
80
81
82
9
125
126
127
124
110
111
108
109
94
95
92
93
19
16
17
18
10
2
62
63
60
61
8
96
97
98
99
6
15
5
30
31
28
29
105
106
107
104
7
100
101
102
103
-1
EOF
